NAME: cuum390.tsp
TYPE: TSP
COMMENT: User-generated TSP file
DIMENSION: 390
EDGE_WEIGHT_TYPE: EUC_2D
NODE_COORD_SECTION
1 101.0 320.0
2 64.0 259.0
3 366.0 315.0
4 241.0 305.0
5 194.0 216.0
6 101.0 7.0
7 53.0 178.0
8 346.0 63.0
9 265.0 86.0
10 178.0 137.0
11 300.0 133.0
12 317.0 327.0
13 194.0 88.0
14 268.0 73.0
15 342.0 245.0
16 81.0 60.0
17 58.0 295.0
18 109.0 122.0
19 316.0 124.0
20 92.0 193.0
21 84.0 73.0
22 104.0 235.0
23 349.0 217.0
24 73.0 369.0
25 351.0 360.0
26 106.0 76.0
27 225.0 390.0
28 54.0 329.0
29 179.0 373.0
30 77.0 127.0
31 359.0 252.0
32 128.0 140.0
33 77.0 277.0
34 59.0 301.0
35 345.0 45.0
36 113.0 172.0
37 131.0 130.0
38 325.0 196.0
39 41.0 12.0
40 348.0 40.0
41 3.0 58.0
42 330.0 243.0
43 296.0 42.0
44 346.0 233.0
45 119.0 244.0
46 160.0 160.0
47 197.0 375.0
48 52.0 389.0
49 355.0 219.0
50 386.0 242.0
51 48.0 230.0
52 54.0 274.0
53 45.0 144.0
54 161.0 40.0
55 252.0 289.0
56 285.0 257.0
57 136.0 222.0
58 369.0 25.0
59 308.0 122.0
60 293.0 148.0
61 46.0 339.0
62 378.0 125.0
63 182.0 185.0
64 75.0 182.0
65 214.0 8.0
66 280.0 346.0
67 369.0 305.0
68 84.0 33.0
69 156.0 156.0
70 104.0 361.0
71 190.0 55.0
72 101.0 283.0
73 298.0 379.0
74 368.0 37.0
75 174.0 343.0
76 296.0 263.0
77 338.0 304.0
78 53.0 356.0
79 82.0 284.0
80 13.0 314.0
81 51.0 52.0
82 309.0 196.0
83 192.0 129.0
84 141.0 301.0
85 94.0 210.0
86 14.0 263.0
87 372.0 99.0
88 205.0 84.0
89 149.0 92.0
90 233.0 172.0
91 53.0 55.0
92 139.0 153.0
93 196.0 183.0
94 117.0 261.0
95 314.0 351.0
96 316.0 112.0
97 293.0 390.0
98 39.0 317.0
99 94.0 93.0
100 33.0 200.0
101 11.0 113.0
102 202.0 288.0
103 103.0 4.0
104 226.0 150.0
105 373.0 147.0
106 250.0 343.0
107 340.0 77.0
108 323.0 375.0
109 83.0 327.0
110 172.0 271.0
111 64.0 344.0
112 361.0 7.0
113 253.0 60.0
114 2.0 197.0
115 383.0 342.0
116 240.0 239.0
117 275.0 253.0
118 296.0 243.0
119 1.0 4.0
120 237.0 228.0
121 164.0 157.0
122 218.0 296.0
123 24.0 105.0
124 389.0 117.0
125 359.0 268.0
126 249.0 207.0
127 361.0 117.0
128 95.0 9.0
129 231.0 50.0
130 122.0 241.0
131 1.0 379.0
132 248.0 336.0
133 380.0 187.0
134 126.0 190.0
135 131.0 279.0
136 284.0 131.0
137 369.0 68.0
138 26.0 146.0
139 243.0 98.0
140 75.0 289.0
141 135.0 114.0
142 92.0 205.0
143 285.0 244.0
144 370.0 225.0
145 167.0 113.0
146 376.0 260.0
147 218.0 56.0
148 123.0 253.0
149 326.0 135.0
150 336.0 317.0
151 165.0 345.0
152 62.0 73.0
153 242.0 294.0
154 49.0 200.0
155 255.0 125.0
156 261.0 64.0
157 190.0 10.0
158 297.0 98.0
159 275.0 210.0
160 22.0 7.0
161 23.0 330.0
162 199.0 293.0
163 226.0 231.0
164 256.0 118.0
165 180.0 176.0
166 247.0 2.0
167 59.0 39.0
168 121.0 362.0
169 139.0 183.0
170 169.0 167.0
171 2.0 378.0
172 152.0 81.0
173 126.0 172.0
174 95.0 242.0
175 141.0 22.0
176 239.0 78.0
177 346.0 215.0
178 18.0 311.0
179 34.0 25.0
180 43.0 118.0
181 298.0 159.0
182 140.0 289.0
183 91.0 129.0
184 255.0 285.0
185 195.0 86.0
186 69.0 172.0
187 224.0 126.0
188 336.0 194.0
189 281.0 134.0
190 197.0 338.0
191 219.0 205.0
192 284.0 30.0
193 335.0 218.0
194 253.0 175.0
195 211.0 21.0
196 274.0 376.0
197 358.0 247.0
198 144.0 82.0
199 116.0 284.0
200 279.0 283.0
201 351.0 313.0
202 69.0 330.0
203 258.0 354.0
204 321.0 320.0
205 280.0 128.0
206 83.0 250.0
207 4.0 163.0
208 389.0 106.0
209 140.0 104.0
210 311.0 259.0
211 214.0 317.0
212 230.0 20.0
213 368.0 209.0
214 214.0 289.0
215 317.0 289.0
216 144.0 268.0
217 142.0 25.0
218 70.0 51.0
219 51.0 125.0
220 375.0 271.0
221 195.0 91.0
222 6.0 383.0
223 119.0 305.0
224 99.0 302.0
225 216.0 284.0
226 365.0 260.0
227 268.0 36.0
228 107.0 293.0
229 343.0 187.0
230 10.0 366.0
231 212.0 102.0
232 205.0 287.0
233 152.0 84.0
234 178.0 145.0
235 385.0 303.0
236 352.0 217.0
237 319.0 126.0
238 24.0 102.0
239 132.0 195.0
240 323.0 153.0
241 2.0 289.0
242 227.0 41.0
243 316.0 15.0
244 77.0 55.0
245 223.0 181.0
246 260.0 64.0
247 12.0 106.0
248 72.0 54.0
249 218.0 39.0
250 148.0 230.0
251 156.0 243.0
252 7.0 213.0
253 150.0 377.0
254 52.0 13.0
255 167.0 142.0
256 116.0 166.0
257 310.0 305.0
258 132.0 40.0
259 16.0 364.0
260 27.0 23.0
261 58.0 229.0
262 57.0 41.0
263 185.0 358.0
264 206.0 200.0
265 291.0 264.0
266 283.0 310.0
267 37.0 144.0
268 309.0 372.0
269 107.0 322.0
270 255.0 290.0
271 358.0 292.0
272 146.0 191.0
273 74.0 242.0
274 224.0 386.0
275 179.0 91.0
276 259.0 225.0
277 389.0 366.0
278 147.0 242.0
279 329.0 70.0
280 170.0 185.0
281 145.0 382.0
282 376.0 315.0
283 17.0 21.0
284 220.0 198.0
285 287.0 333.0
286 152.0 130.0
287 113.0 78.0
288 127.0 51.0
289 97.0 61.0
290 19.0 274.0
291 162.0 117.0
292 134.0 179.0
293 199.0 286.0
294 324.0 332.0
295 331.0 221.0
296 131.0 309.0
297 383.0 351.0
298 7.0 174.0
299 88.0 274.0
300 177.0 3.0
301 103.0 242.0
302 184.0 207.0
303 203.0 279.0
304 376.0 307.0
305 152.0 29.0
306 214.0 17.0
307 280.0 104.0
308 314.0 72.0
309 274.0 217.0
310 185.0 372.0
311 147.0 367.0
312 294.0 52.0
313 6.0 299.0
314 191.0 91.0
315 345.0 57.0
316 363.0 257.0
317 109.0 68.0
318 23.0 169.0
319 124.0 17.0
320 178.0 67.0
321 134.0 63.0
322 387.0 266.0
323 364.0 179.0
324 333.0 106.0
325 158.0 354.0
326 20.0 229.0
327 179.0 290.0
328 292.0 26.0
329 255.0 1.0
330 274.0 138.0
331 46.0 193.0
332 262.0 262.0
333 135.0 366.0
334 373.0 95.0
335 126.0 8.0
336 116.0 82.0
337 85.0 365.0
338 277.0 125.0
339 306.0 216.0
340 311.0 57.0
341 213.0 181.0
342 90.0 198.0
343 242.0 276.0
344 331.0 48.0
345 137.0 229.0
346 30.0 385.0
347 385.0 295.0
348 122.0 342.0
349 217.0 353.0
350 5.0 377.0
351 172.0 97.0
352 366.0 49.0
353 6.0 377.0
354 295.0 380.0
355 281.0 345.0
356 59.0 278.0
357 313.0 5.0
358 376.0 318.0
359 289.0 237.0
360 339.0 32.0
361 268.0 315.0
362 87.0 300.0
363 132.0 315.0
364 90.0 329.0
365 60.0 227.0
366 110.0 346.0
367 40.0 302.0
368 240.0 22.0
369 44.0 49.0
370 218.0 55.0
371 246.0 194.0
372 48.0 253.0
373 329.0 178.0
374 240.0 91.0
375 72.0 282.0
376 205.0 168.0
377 287.0 149.0
378 93.0 193.0
379 365.0 342.0
380 255.0 120.0
381 117.0 296.0
382 205.0 92.0
383 198.0 35.0
384 357.0 309.0
385 206.0 278.0
386 70.0 298.0
387 345.0 57.0
388 379.0 258.0
389 191.0 231.0
390 192.0 231.0
EOF





